NAME: random-48-30258
TYPE: TSP
COMMENT: size=48 seed=30258
DIMENSION: 98
EDGE_WEIGHT_TYPE: EUC_2D
NODE_COORD_SECTION
+0 206 182
-0 206 182
+1 300 801
-1 671 497
+2 696 115
-2 732 318
+3 415 74
-3 447 305
+4 737 978
-4 873 662
+5 270 942
-5 735 515
+6 339 593
-6 588 182
+7 739 678
-7 58 994
+8 269 794
-8 996 957
+9 708 553
-9 440 880
+10 808 66
-10 92 323
+11 819 457
-11 360 935
+12 655 118
-12 34 89
+13 146 806
-13 454 834
+14 505 401
-14 770 670
+15 592 373
-15 855 701
+16 767 12
-16 775 249
+17 805 257
-17 834 17
+18 29 804
-18 407 721
+19 870 83
-19 123 914
+20 614 181
-20 722 601
+21 49 254
-21 518 229
+22 431 642
-22 272 338
+23 503 646
-23 421 769
+24 932 32
-24 601 9
+25 979 200
-25 288 59
+26 149 205
-26 153 426
+27 215 531
-27 293 871
+28 550 853
-28 648 618
+29 38 203
-29 369 234
+30 889 430
-30 22 919
+31 899 125
-31 588 167
+32 517 820
-32 850 507
+33 600 264
-33 455 861
+34 23 488
-34 869 963
+35 35 922
-35 335 852
+36 384 724
-36 843 658
+37 114 241
-37 896 524
+38 499 834
-38 759 654
+39 964 945
-39 67 55
+40 881 43
-40 741 257
+41 278 798
-41 872 593
+42 585 267
-42 365 993
+43 818 575
-43 702 282
+44 821 86
-44 422 254
+45 305 791
-45 557 132
+46 827 66
-46 707 536
+47 238 951
-47 579 821
+48 228 231
-48 360 830
PRECEDENCE_SECTION
+0 -0
+1 -1
+2 -2
+3 -3
+4 -4
+5 -5
+6 -6
+7 -7
+8 -8
+9 -9
+10 -10
+11 -11
+12 -12
+13 -13
+14 -14
+15 -15
+16 -16
+17 -17
+18 -18
+19 -19
+20 -20
+21 -21
+22 -22
+23 -23
+24 -24
+25 -25
+26 -26
+27 -27
+28 -28
+29 -29
+30 -30
+31 -31
+32 -32
+33 -33
+34 -34
+35 -35
+36 -36
+37 -37
+38 -38
+39 -39
+40 -40
+41 -41
+42 -42
+43 -43
+44 -44
+45 -45
+46 -46
+47 -47
+48 -48
EOF
